Welcome to the CBC MILP Solver 
Version: 2.10.3 
Build Date: Dec 15 2019 

command line - C:\Users\LARGATON\OneDrive - Université de Rennes\PL - Programmation Linéaire\TP\TP_BASE\.venv\Lib\site-packages\pulp\apis\..\solverdir\cbc\win\64\cbc.exe C:\Users\LARGATON\AppData\Local\Temp\1bf79b399b97404384fa103a83c61983-pulp.mps max timeMode elapsed branch printingOptions all solution C:\Users\LARGATON\AppData\Local\Temp\1bf79b399b97404384fa103a83c61983-pulp.sol (default strategy 1)
At line 2 NAME          MODEL
At line 3 ROWS
At line 5 COLUMNS
At line 7 RHS
At line 8 BOUNDS
At line 10 ENDATA
Problem MODEL has 0 rows, 1 columns and 0 elements
Coin0008I MODEL read with 0 errors
Option for timeMode changed from cpu to elapsed
Empty problem - 0 rows, 1 columns and 0 elements
Optimal - objective value -0
Optimal objective -0 - 0 iterations time 0.002
Option for printingOptions changed from normal to all
Total time (CPU seconds):       0.01   (Wallclock seconds):       0.01

